NAME: PointSet_Angle_60_3
TYPE: TSP
COMMENT: Points chosen discrete uniformly at random out of ${0, \ldots, 500}^2$.
DIMENSION: 60
EDGE_WEIGHT_TYPE: EUC_2D
NODE_COORD_SECTION
1 313 402
2 132 346
3 436 69
4 468 144
5 368 266
6 85 206
7 271 54
8 287 72
9 411 336
10 4 71
11 327 165
12 24 232
13 303 239
14 127 488
15 305 451
16 498 118
17 98 376
18 210 34
19 445 425
20 425 312
21 190 10
22 17 461
23 64 51
24 32 222
25 387 284
26 39 460
27 449 63
28 192 251
29 48 65
30 486 354
31 15 229
32 218 361
33 104 428
34 395 48
35 98 65
36 106 289
37 75 370
38 496 387
39 421 275
40 355 54
41 58 394
42 13 6
43 203 452
44 3 251
45 17 489
46 351 32
47 464 315
48 139 67
49 490 33
50 362 87
51 346 468
52 122 167
53 338 118
54 53 4
55 393 154
56 58 451
57 47 319
58 203 497
59 270 206
60 248 287
EOF
